c CNF
c from Selman's wff generator
p cnf 200  1400
1.0 -198 111 0
1.0 -158 152 0
1.0 -20 -41 0
1.0 -1 -135 0
1.0 -151 52 0
1.0 -184 2 0
1.0 5 -46 0
1.0 -156 -87 0
1.0 -198 -171 0
1.0 -123 -66 0
1.0 107 -177 0
1.0 112 32 0
1.0 -83 143 0
1.0 145 -56 0
1.0 -101 126 0
1.0 12 99 0
1.0 -70 -166 0
1.0 -31 -152 0
1.0 129 6 0
1.0 -38 -63 0
1.0 -5 -34 0
1.0 89 -71 0
1.0 196 22 0
1.0 121 -54 0
1.0 -19 181 0
1.0 -133 116 0
1.0 122 -29 0
1.0 91 2 0
1.0 35 -66 0
1.0 -136 -142 0
1.0 -164 158 0
1.0 12 157 0
1.0 137 56 0
1.0 -172 65 0
1.0 94 -30 0
1.0 31 131 0
1.0 -197 -124 0
1.0 66 101 0
1.0 -59 4 0
1.0 161 187 0
1.0 -42 179 0
1.0 -44 -96 0
1.0 -125 -158 0
1.0 88 1 0
1.0 124 -9 0
1.0 110 -80 0
1.0 84 132 0
1.0 -118 -138 0
1.0 -117 -107 0
1.0 2 -79 0
1.0 36 -19 0
1.0 19 -102 0
1.0 -111 23 0
1.0 -103 -150 0
1.0 82 -26 0
1.0 -164 170 0
1.0 76 132 0
1.0 11 138 0
1.0 -156 -85 0
1.0 -187 176 0
1.0 -199 -49 0
1.0 199 105 0
1.0 131 117 0
1.0 -86 -38 0
1.0 170 -14 0
1.0 151 -42 0
1.0 127 -194 0
1.0 170 -197 0
1.0 46 126 0
1.0 -31 -157 0
1.0 73 -2 0
1.0 -39 28 0
1.0 -42 -158 0
1.0 200 -13 0
1.0 7 -179 0
1.0 -176 49 0
1.0 175 14 0
1.0 -170 187 0
1.0 188 20 0
1.0 47 120 0
1.0 78 22 0
1.0 34 179 0
1.0 158 -43 0
1.0 -92 160 0
1.0 174 -18 0
1.0 -4 -37 0
1.0 56 -186 0
1.0 -106 -52 0
1.0 73 -72 0
1.0 -51 64 0
1.0 -106 -161 0
1.0 121 94 0
1.0 111 -135 0
1.0 -172 22 0
1.0 -8 -122 0
1.0 174 122 0
1.0 -193 157 0
1.0 20 -97 0
1.0 -57 -190 0
1.0 83 -186 0
1.0 -121 107 0
1.0 -128 -12 0
1.0 134 -50 0
1.0 -171 -145 0
1.0 101 -104 0
1.0 200 55 0
1.0 45 -168 0
1.0 -154 104 0
1.0 -10 -27 0
1.0 39 -85 0
1.0 134 -121 0
1.0 65 -31 0
1.0 134 -71 0
1.0 -126 -132 0
1.0 100 23 0
1.0 -126 -17 0
1.0 43 93 0
1.0 177 -144 0
1.0 65 -132 0
1.0 163 80 0
1.0 150 182 0
1.0 114 19 0
1.0 41 -140 0
1.0 -157 -193 0
1.0 85 173 0
1.0 -117 -134 0
1.0 -66 184 0
1.0 -63 6 0
1.0 187 154 0
1.0 -173 132 0
1.0 -72 178 0
1.0 170 80 0
1.0 -53 -107 0
1.0 -41 -85 0
1.0 -69 -61 0
1.0 -66 59 0
1.0 -13 -32 0
1.0 -163 65 0
1.0 42 177 0
1.0 57 -88 0
1.0 195 180 0
1.0 -64 -30 0
1.0 90 -76 0
1.0 135 -8 0
1.0 -39 161 0
1.0 25 131 0
1.0 107 -97 0
1.0 185 -144 0
1.0 123 -152 0
1.0 -181 156 0
1.0 32 -183 0
1.0 -191 35 0
1.0 195 47 0
1.0 177 66 0
1.0 163 -164 0
1.0 -107 120 0
1.0 72 140 0
1.0 -95 -136 0
1.0 118 -150 0
1.0 -184 -6 0
1.0 -53 167 0
1.0 -33 -83 0
1.0 -47 -158 0
1.0 -78 -67 0
1.0 7 -200 0
1.0 135 125 0
1.0 -74 120 0
1.0 126 -97 0
1.0 64 33 0
1.0 116 -117 0
1.0 -75 -34 0
1.0 -100 101 0
1.0 102 7 0
1.0 34 -86 0
1.0 47 -156 0
1.0 192 56 0
1.0 -62 -104 0
1.0 196 101 0
1.0 -17 -4 0
1.0 104 34 0
1.0 41 48 0
1.0 134 -130 0
1.0 -86 107 0
1.0 162 130 0
1.0 34 39 0
1.0 140 -54 0
1.0 57 -185 0
1.0 -19 87 0
1.0 -135 197 0
1.0 126 161 0
1.0 68 171 0
1.0 101 -188 0
1.0 -27 -54 0
1.0 -107 -20 0
1.0 -4 195 0
1.0 81 89 0
1.0 86 15 0
1.0 176 130 0
1.0 101 110 0
1.0 -98 -124 0
1.0 177 97 0
1.0 116 -12 0
1.0 -6 170 0
1.0 59 -24 0
1.0 -38 183 0
1.0 112 177 0
1.0 86 -128 0
1.0 -52 147 0
1.0 -44 -196 0
1.0 7 157 0
1.0 126 -21 0
1.0 -44 198 0
1.0 180 81 0
1.0 -57 -152 0
1.0 -79 -117 0
1.0 -63 -32 0
1.0 28 69 0
1.0 26 -146 0
1.0 -166 145 0
1.0 143 -62 0
1.0 143 -187 0
1.0 -138 118 0
1.0 -34 68 0
1.0 99 -104 0
1.0 -173 -69 0
1.0 -14 -8 0
1.0 -152 84 0
1.0 145 81 0
1.0 68 30 0
1.0 147 -29 0
1.0 96 -167 0
1.0 -71 80 0
1.0 148 -82 0
1.0 -89 191 0
1.0 -74 131 0
1.0 -12 149 0
1.0 179 -193 0
1.0 -21 -104 0
1.0 -71 -182 0
1.0 -61 31 0
1.0 -112 -26 0
1.0 16 112 0
1.0 -43 173 0
1.0 -121 14 0
1.0 6 16 0
1.0 -120 -129 0
1.0 -111 -51 0
1.0 -81 -116 0
1.0 -141 -151 0
1.0 62 -31 0
1.0 -3 -153 0
1.0 167 -90 0
1.0 -105 46 0
1.0 175 139 0
1.0 190 145 0
1.0 60 37 0
1.0 -187 54 0
1.0 -85 2 0
1.0 154 -110 0
1.0 200 -32 0
1.0 -78 90 0
1.0 -28 143 0
1.0 88 -194 0
1.0 -30 150 0
1.0 4 103 0
1.0 -104 18 0
1.0 -128 -185 0
1.0 17 69 0
1.0 -159 -160 0
1.0 103 -83 0
1.0 -77 -91 0
1.0 -40 83 0
1.0 -186 188 0
1.0 -5 -106 0
1.0 90 -125 0
1.0 -194 -90 0
1.0 -50 -145 0
1.0 -28 -140 0
1.0 30 76 0
1.0 -159 -132 0
1.0 119 -45 0
1.0 150 181 0
1.0 -105 114 0
1.0 3 145 0
1.0 90 -186 0
1.0 126 -143 0
1.0 19 -30 0
1.0 -162 139 0
1.0 183 -155 0
1.0 -135 59 0
1.0 -172 -118 0
1.0 62 -186 0
1.0 171 30 0
1.0 172 -88 0
1.0 -118 76 0
1.0 -15 -90 0
1.0 -45 -162 0
1.0 20 -101 0
1.0 -18 156 0
1.0 141 -192 0
1.0 21 -98 0
1.0 -186 -59 0
1.0 -135 -152 0
1.0 -42 140 0
1.0 101 -75 0
1.0 -175 -85 0
1.0 41 -78 0
1.0 70 102 0
1.0 200 -101 0
1.0 160 67 0
1.0 19 70 0
1.0 -9 -188 0
1.0 62 13 0
1.0 97 -143 0
1.0 -20 101 0
1.0 -3 13 0
1.0 -114 62 0
1.0 -128 -75 0
1.0 144 -9 0
1.0 197 152 0
1.0 164 93 0
1.0 -35 125 0
1.0 -26 118 0
1.0 130 121 0
1.0 -182 -17 0
1.0 92 82 0
1.0 -90 61 0
1.0 -12 -51 0
1.0 144 -40 0
1.0 164 -35 0
1.0 153 175 0
1.0 -96 46 0
1.0 -63 -40 0
1.0 -121 42 0
1.0 102 -177 0
1.0 28 -41 0
1.0 -80 127 0
1.0 161 -181 0
1.0 -155 49 0
1.0 -94 -120 0
1.0 -159 114 0
1.0 156 99 0
1.0 -76 -185 0
1.0 26 -61 0
1.0 -187 -22 0
1.0 3 -181 0
1.0 29 -56 0
1.0 175 -134 0
1.0 48 188 0
1.0 87 -100 0
1.0 85 -30 0
1.0 91 139 0
1.0 161 -163 0
1.0 -143 -85 0
1.0 140 -126 0
1.0 60 -172 0
1.0 -159 59 0
1.0 158 169 0
1.0 -199 73 0
1.0 -12 -167 0
1.0 -130 189 0
1.0 73 54 0
1.0 -180 137 0
1.0 -108 174 0
1.0 -32 -55 0
1.0 23 120 0
1.0 -193 185 0
1.0 -151 75 0
1.0 -63 -111 0
1.0 -164 -197 0
1.0 -134 75 0
1.0 -48 128 0
1.0 182 21 0
1.0 140 -100 0
1.0 -84 134 0
1.0 -8 111 0
1.0 21 -69 0
1.0 -66 -155 0
1.0 30 110 0
1.0 -38 149 0
1.0 169 -25 0
1.0 124 47 0
1.0 180 -175 0
1.0 86 -158 0
1.0 26 64 0
1.0 19 -90 0
1.0 -130 125 0
1.0 81 -184 0
1.0 6 154 0
1.0 194 -37 0
1.0 79 19 0
1.0 76 -160 0
1.0 -51 153 0
1.0 -42 -6 0
1.0 131 164 0
1.0 -148 -96 0
1.0 50 146 0
1.0 182 37 0
1.0 55 -65 0
1.0 25 158 0
1.0 -110 -28 0
1.0 -33 -143 0
1.0 -107 172 0
1.0 68 -91 0
1.0 -36 13 0
1.0 50 -171 0
1.0 36 173 0
1.0 -130 105 0
1.0 -132 -81 0
1.0 -24 -113 0
1.0 -85 -102 0
1.0 192 69 0
1.0 29 -45 0
1.0 122 158 0
1.0 193 96 0
1.0 31 -63 0
1.0 -53 -193 0
1.0 121 65 0
1.0 49 2 0
1.0 70 42 0
1.0 86 98 0
1.0 -56 132 0
1.0 -27 124 0
1.0 -187 173 0
1.0 166 104 0
1.0 -168 54 0
1.0 55 -122 0
1.0 163 100 0
1.0 198 119 0
1.0 -50 156 0
1.0 -80 45 0
1.0 -17 -101 0
1.0 4 -109 0
1.0 -163 175 0
1.0 -97 43 0
1.0 -143 -163 0
1.0 -81 -163 0
1.0 118 -94 0
1.0 -138 63 0
1.0 168 136 0
1.0 3 -15 0
1.0 2 56 0
1.0 -197 -132 0
1.0 39 127 0
1.0 -120 170 0
1.0 -176 -116 0
1.0 -179 -104 0
1.0 39 196 0
1.0 10 61 0
1.0 116 -90 0
1.0 22 41 0
1.0 167 111 0
1.0 80 180 0
1.0 -96 48 0
1.0 152 -121 0
1.0 116 -41 0
1.0 -101 48 0
1.0 -138 -190 0
1.0 31 -198 0
1.0 108 -81 0
1.0 60 -182 0
1.0 30 -11 0
1.0 -131 48 0
1.0 -88 -1 0
1.0 49 -105 0
1.0 -95 -133 0
1.0 -130 164 0
1.0 44 -6 0
1.0 187 69 0
1.0 -79 87 0
1.0 134 167 0
1.0 168 26 0
1.0 131 16 0
1.0 -148 147 0
1.0 -110 -72 0
1.0 77 141 0
1.0 9 117 0
1.0 4 -76 0
1.0 -43 153 0
1.0 178 -170 0
1.0 -185 -27 0
1.0 174 82 0
1.0 153 124 0
1.0 64 95 0
1.0 -11 171 0
1.0 -46 58 0
1.0 10 -110 0
1.0 79 123 0
1.0 -150 -28 0
1.0 110 3 0
1.0 127 -43 0
1.0 137 -184 0
1.0 -154 -23 0
1.0 80 111 0
1.0 20 184 0
1.0 -106 171 0
1.0 -199 -157 0
1.0 -159 184 0
1.0 27 -63 0
1.0 -46 -138 0
1.0 -160 70 0
1.0 -181 83 0
1.0 66 -4 0
1.0 175 -61 0
1.0 17 -6 0
1.0 190 52 0
1.0 -114 -136 0
1.0 -74 89 0
1.0 159 -154 0
1.0 -37 -200 0
1.0 3 -39 0
1.0 -99 -102 0
1.0 108 31 0
1.0 -82 -152 0
1.0 -88 -92 0
1.0 -180 -111 0
1.0 65 -66 0
1.0 66 16 0
1.0 54 -78 0
1.0 179 195 0
1.0 -26 -160 0
1.0 -112 -97 0
1.0 -188 -56 0
1.0 -166 155 0
1.0 -20 183 0
1.0 -198 134 0
1.0 12 -199 0
1.0 194 74 0
1.0 -33 -60 0
1.0 -157 -27 0
1.0 -82 105 0
1.0 59 18 0
1.0 -200 -8 0
1.0 142 -117 0
1.0 -116 -55 0
1.0 -128 -21 0
1.0 -81 53 0
1.0 -79 -49 0
1.0 153 93 0
1.0 111 -85 0
1.0 -93 53 0
1.0 -169 158 0
1.0 -12 -132 0
1.0 152 121 0
1.0 173 4 0
1.0 53 49 0
1.0 142 21 0
1.0 -105 -104 0
1.0 156 -70 0
1.0 28 20 0
1.0 -151 -3 0
1.0 -123 78 0
1.0 -82 -2 0
1.0 -51 -160 0
1.0 181 154 0
1.0 58 6 0
1.0 -76 -115 0
1.0 -135 148 0
1.0 -150 121 0
1.0 -199 121 0
1.0 123 -115 0
1.0 -75 153 0
1.0 -107 -9 0
1.0 -15 23 0
1.0 -137 116 0
1.0 -63 135 0
1.0 55 143 0
1.0 -64 -51 0
1.0 -166 147 0
1.0 100 125 0
1.0 -133 -35 0
1.0 57 -148 0
1.0 64 -29 0
1.0 -163 21 0
1.0 164 21 0
1.0 72 3 0
1.0 150 173 0
1.0 97 172 0
1.0 -7 27 0
1.0 174 13 0
1.0 -42 123 0
1.0 143 -100 0
1.0 -121 -92 0
1.0 95 147 0
1.0 119 106 0
1.0 78 151 0
1.0 -177 -20 0
1.0 -32 4 0
1.0 126 149 0
1.0 -49 -99 0
1.0 -191 109 0
1.0 -56 -189 0
1.0 -95 -25 0
1.0 175 -33 0
1.0 -52 2 0
1.0 -6 -88 0
1.0 -37 35 0
1.0 133 -176 0
1.0 85 -14 0
1.0 -3 140 0
1.0 165 -103 0
1.0 136 -123 0
1.0 125 -191 0
1.0 78 -28 0
1.0 -62 199 0
1.0 -52 119 0
1.0 129 60 0
1.0 174 164 0
1.0 32 -173 0
1.0 63 199 0
1.0 -70 9 0
1.0 -70 -45 0
1.0 -43 154 0
1.0 -72 88 0
1.0 148 -27 0
1.0 -191 101 0
1.0 -73 -9 0
1.0 -8 56 0
1.0 -64 -119 0
1.0 164 133 0
1.0 -86 -32 0
1.0 -119 60 0
1.0 -87 26 0
1.0 127 -185 0
1.0 -193 76 0
1.0 131 -123 0
1.0 -41 50 0
1.0 183 193 0
1.0 24 -111 0
1.0 170 183 0
1.0 -9 -196 0
1.0 -180 -33 0
1.0 -108 69 0
1.0 191 49 0
1.0 99 160 0
1.0 -152 -45 0
1.0 -155 -174 0
1.0 -157 -126 0
1.0 121 -115 0
1.0 147 34 0
1.0 103 46 0
1.0 -94 -124 0
1.0 84 159 0
1.0 4 -23 0
1.0 197 -127 0
1.0 -53 -65 0
1.0 179 -18 0
1.0 -52 -146 0
1.0 191 72 0
1.0 195 170 0
1.0 -129 -152 0
1.0 175 -123 0
1.0 -50 -173 0
1.0 37 42 0
1.0 -59 -148 0
1.0 94 121 0
1.0 -192 -109 0
1.0 79 48 0
1.0 -199 -177 0
1.0 -99 -28 0
1.0 1 67 0
1.0 108 -124 0
1.0 72 -195 0
1.0 116 -139 0
1.0 47 -19 0
1.0 -66 158 0
1.0 135 70 0
1.0 -98 180 0
1.0 -46 -31 0
1.0 -155 190 0
1.0 -185 195 0
1.0 133 -39 0
1.0 -57 -100 0
1.0 -57 -37 0
1.0 106 23 0
1.0 -3 6 0
1.0 36 -38 0
1.0 27 122 0
1.0 -116 5 0
1.0 44 -117 0
1.0 16 134 0
1.0 170 9 0
1.0 32 87 0
1.0 92 -179 0
1.0 -16 85 0
1.0 6 -132 0
1.0 -137 -164 0
1.0 80 199 0
1.0 -132 -103 0
1.0 -112 -30 0
1.0 -117 53 0
1.0 -32 61 0
1.0 146 -53 0
1.0 185 -143 0
1.0 -106 -44 0
1.0 42 -181 0
1.0 83 -48 0
1.0 -77 -50 0
1.0 103 -115 0
1.0 -175 -138 0
1.0 191 -71 0
1.0 13 -145 0
1.0 -189 198 0
1.0 178 185 0
1.0 32 -78 0
1.0 -128 191 0
1.0 -105 103 0
1.0 -41 147 0
1.0 17 72 0
1.0 -17 103 0
1.0 100 53 0
1.0 -37 39 0
1.0 -116 191 0
1.0 181 77 0
1.0 -180 39 0
1.0 185 166 0
1.0 37 56 0
1.0 159 180 0
1.0 -32 94 0
1.0 -132 72 0
1.0 62 112 0
1.0 -188 -165 0
1.0 -4 -93 0
1.0 -58 36 0
1.0 -92 22 0
1.0 -1 7 0
1.0 -100 43 0
1.0 114 -37 0
1.0 148 -170 0
1.0 -135 -146 0
1.0 -38 88 0
1.0 -124 117 0
1.0 138 -139 0
1.0 -146 174 0
1.0 17 -72 0
1.0 -109 156 0
1.0 -125 123 0
1.0 -68 -93 0
1.0 181 -123 0
1.0 -40 -192 0
1.0 -130 186 0
1.0 -160 -87 0
1.0 -159 197 0
1.0 -152 10 0
1.0 -132 -114 0
1.0 -7 -131 0
1.0 54 106 0
1.0 97 11 0
1.0 -196 -186 0
1.0 -73 21 0
1.0 17 -35 0
1.0 45 -20 0
1.0 -134 -180 0
1.0 -110 -80 0
1.0 186 18 0
1.0 -28 127 0
1.0 -113 -8 0
1.0 28 108 0
1.0 143 -113 0
1.0 -133 58 0
1.0 37 -139 0
1.0 -19 133 0
1.0 150 -168 0
1.0 -94 192 0
1.0 -200 178 0
1.0 85 6 0
1.0 118 86 0
1.0 -144 -177 0
1.0 -116 -122 0
1.0 -54 39 0
1.0 -6 23 0
1.0 -15 179 0
1.0 157 96 0
1.0 101 113 0
1.0 199 -83 0
1.0 -60 -184 0
1.0 -105 -50 0
1.0 -88 47 0
1.0 -70 140 0
1.0 118 98 0
1.0 -193 138 0
1.0 -51 184 0
1.0 -67 -180 0
1.0 -164 114 0
1.0 163 10 0
1.0 -56 -187 0
1.0 126 137 0
1.0 -34 106 0
1.0 -43 33 0
1.0 -17 33 0
1.0 13 -134 0
1.0 47 109 0
1.0 118 -71 0
1.0 57 -5 0
1.0 141 -108 0
1.0 13 143 0
1.0 -176 -122 0
1.0 154 -92 0
1.0 -25 84 0
1.0 193 -186 0
1.0 56 -140 0
1.0 144 183 0
1.0 91 -120 0
1.0 -63 60 0
1.0 181 -109 0
1.0 200 107 0
1.0 191 -40 0
1.0 25 176 0
1.0 -116 177 0
1.0 -159 86 0
1.0 -6 3 0
1.0 -62 111 0
1.0 -20 137 0
1.0 44 75 0
1.0 115 -139 0
1.0 114 109 0
1.0 85 12 0
1.0 98 -32 0
1.0 -34 45 0
1.0 -156 -77 0
1.0 -14 113 0
1.0 187 -37 0
1.0 175 106 0
1.0 -14 61 0
1.0 -72 -5 0
1.0 36 34 0
1.0 -78 44 0
1.0 120 -100 0
1.0 -12 -200 0
1.0 36 80 0
1.0 185 -141 0
1.0 1 16 0
1.0 20 38 0
1.0 -71 -115 0
1.0 -158 86 0
1.0 185 -188 0
1.0 -188 200 0
1.0 79 95 0
1.0 36 133 0
1.0 -148 -159 0
1.0 196 151 0
1.0 66 144 0
1.0 -30 196 0
1.0 184 -111 0
1.0 -111 -6 0
1.0 101 -29 0
1.0 -161 -116 0
1.0 74 81 0
1.0 -31 96 0
1.0 -39 151 0
1.0 147 -20 0
1.0 -131 93 0
1.0 99 -95 0
1.0 -123 84 0
1.0 -200 106 0
1.0 -186 66 0
1.0 -161 -79 0
1.0 30 -32 0
1.0 -52 -150 0
1.0 42 -7 0
1.0 -102 55 0
1.0 -138 -73 0
1.0 179 -99 0
1.0 -164 -152 0
1.0 -31 93 0
1.0 125 -191 0
1.0 -140 -141 0
1.0 -147 183 0
1.0 37 -60 0
1.0 -133 -179 0
1.0 78 121 0
1.0 -73 -55 0
1.0 -148 89 0
1.0 79 198 0
1.0 -138 7 0
1.0 -189 121 0
1.0 -181 -4 0
1.0 183 111 0
1.0 -31 -99 0
1.0 154 -66 0
1.0 -154 170 0
1.0 167 -21 0
1.0 -28 49 0
1.0 170 -121 0
1.0 124 -40 0
1.0 -150 -88 0
1.0 187 -67 0
1.0 132 92 0
1.0 -62 14 0
1.0 -35 166 0
1.0 15 -121 0
1.0 -42 -119 0
1.0 159 -198 0
1.0 85 38 0
1.0 104 174 0
1.0 -66 -51 0
1.0 -65 36 0
1.0 -2 87 0
1.0 8 39 0
1.0 157 -135 0
1.0 132 85 0
1.0 122 113 0
1.0 87 -97 0
1.0 148 178 0
1.0 -13 34 0
1.0 121 -71 0
1.0 -109 30 0
1.0 -165 190 0
1.0 -74 -5 0
1.0 118 198 0
1.0 -94 79 0
1.0 57 36 0
1.0 69 -162 0
1.0 -32 -114 0
1.0 144 -93 0
1.0 83 -187 0
1.0 -191 -115 0
1.0 -112 171 0
1.0 50 -68 0
1.0 -103 -99 0
1.0 -61 59 0
1.0 172 -78 0
1.0 171 38 0
1.0 24 25 0
1.0 -140 160 0
1.0 130 -34 0
1.0 101 103 0
1.0 -2 60 0
1.0 -119 136 0
1.0 14 -186 0
1.0 23 27 0
1.0 52 -45 0
1.0 4 -182 0
1.0 -15 -99 0
1.0 -2 197 0
1.0 57 -95 0
1.0 31 17 0
1.0 3 71 0
1.0 98 -64 0
1.0 -109 -132 0
1.0 113 -183 0
1.0 81 157 0
1.0 154 163 0
1.0 -58 148 0
1.0 -165 -51 0
1.0 -122 160 0
1.0 -24 -63 0
1.0 194 -109 0
1.0 91 -88 0
1.0 44 -77 0
1.0 40 137 0
1.0 -85 192 0
1.0 43 -116 0
1.0 -76 6 0
1.0 68 150 0
1.0 -58 -73 0
1.0 -161 1 0
1.0 78 -172 0
1.0 109 -7 0
1.0 199 198 0
1.0 114 -56 0
1.0 62 -187 0
1.0 -136 -118 0
1.0 -191 -158 0
1.0 -158 61 0
1.0 -33 -154 0
1.0 -161 -165 0
1.0 -163 174 0
1.0 29 5 0
1.0 191 -152 0
1.0 -69 10 0
1.0 167 -62 0
1.0 -123 -163 0
1.0 116 112 0
1.0 77 28 0
1.0 -1 36 0
1.0 -40 178 0
1.0 -129 -139 0
1.0 149 -78 0
1.0 139 64 0
1.0 26 -200 0
1.0 111 -110 0
1.0 137 -54 0
1.0 -90 -139 0
1.0 -116 87 0
1.0 26 -118 0
1.0 195 -97 0
1.0 -160 -129 0
1.0 -129 10 0
1.0 120 145 0
1.0 -199 51 0
1.0 190 -160 0
1.0 -47 178 0
1.0 95 191 0
1.0 87 134 0
1.0 63 -17 0
1.0 26 -159 0
1.0 103 -57 0
1.0 -108 194 0
1.0 154 -7 0
1.0 184 153 0
1.0 -144 116 0
1.0 50 -190 0
1.0 -6 109 0
1.0 -67 -135 0
1.0 191 177 0
1.0 -170 -60 0
1.0 -67 198 0
1.0 -151 195 0
1.0 -111 -96 0
1.0 85 1 0
1.0 -109 -177 0
1.0 -111 -97 0
1.0 -73 14 0
1.0 -73 -196 0
1.0 -193 -89 0
1.0 84 -118 0
1.0 -13 160 0
1.0 -160 26 0
1.0 2 -109 0
1.0 6 185 0
1.0 -199 15 0
1.0 10 86 0
1.0 -175 198 0
1.0 115 -182 0
1.0 142 -5 0
1.0 -30 13 0
1.0 -122 -12 0
1.0 197 -159 0
1.0 174 -125 0
1.0 -11 -75 0
1.0 73 -131 0
1.0 -113 95 0
1.0 -99 -140 0
1.0 -153 126 0
1.0 138 -104 0
1.0 -63 5 0
1.0 129 -195 0
1.0 -69 -4 0
1.0 -135 168 0
1.0 -62 -44 0
1.0 184 -59 0
1.0 184 -47 0
1.0 150 11 0
1.0 15 -185 0
1.0 179 65 0
1.0 -68 7 0
1.0 174 118 0
1.0 -162 -151 0
1.0 9 -82 0
1.0 -128 92 0
1.0 102 -170 0
1.0 155 -136 0
1.0 -1 143 0
1.0 150 -170 0
1.0 -88 120 0
1.0 -71 153 0
1.0 34 -77 0
1.0 168 187 0
1.0 -157 -127 0
1.0 63 46 0
1.0 -188 -24 0
1.0 194 3 0
1.0 -122 -18 0
1.0 170 126 0
1.0 -3 -145 0
1.0 131 2 0
1.0 -129 -25 0
1.0 71 40 0
1.0 -64 186 0
1.0 -188 -54 0
1.0 -72 71 0
1.0 197 -175 0
1.0 -119 8 0
1.0 -10 -8 0
1.0 -33 -132 0
1.0 -172 184 0
1.0 170 -155 0
1.0 9 33 0
1.0 -103 169 0
1.0 144 164 0
1.0 -172 -66 0
1.0 -74 -45 0
1.0 177 -50 0
1.0 -34 170 0
1.0 -125 -77 0
1.0 109 27 0
1.0 -196 -132 0
1.0 -96 8 0
1.0 74 -110 0
1.0 154 -169 0
1.0 18 63 0
1.0 33 -61 0
1.0 138 13 0
1.0 40 101 0
1.0 -33 -168 0
1.0 -176 173 0
1.0 -82 44 0
1.0 -12 50 0
1.0 113 -43 0
1.0 -104 132 0
1.0 145 -190 0
1.0 91 -144 0
1.0 111 192 0
1.0 -164 46 0
1.0 89 131 0
1.0 -180 46 0
1.0 89 -8 0
1.0 140 138 0
1.0 128 118 0
1.0 -62 -86 0
1.0 77 191 0
1.0 36 -192 0
1.0 122 -167 0
1.0 -13 -153 0
1.0 160 30 0
1.0 -168 124 0
1.0 -42 -51 0
1.0 137 53 0
1.0 43 132 0
1.0 124 139 0
1.0 -106 -26 0
1.0 178 -141 0
1.0 171 -110 0
1.0 34 20 0
1.0 -71 144 0
1.0 196 52 0
1.0 -184 -73 0
1.0 -12 -118 0
1.0 144 -101 0
1.0 41 52 0
1.0 -162 -96 0
1.0 115 -180 0
1.0 -123 -47 0
1.0 -99 12 0
1.0 -84 72 0
1.0 190 -143 0
1.0 43 45 0
1.0 97 112 0
1.0 8 -42 0
1.0 -21 -122 0
1.0 169 100 0
1.0 -111 -17 0
1.0 89 138 0
1.0 80 -100 0
1.0 145 64 0
1.0 176 -99 0
1.0 -140 -151 0
1.0 -72 12 0
1.0 -112 165 0
1.0 182 55 0
1.0 -193 104 0
1.0 -4 -158 0
1.0 -21 -199 0
1.0 -97 87 0
1.0 -38 -82 0
1.0 -94 101 0
1.0 66 56 0
1.0 -111 -42 0
1.0 -146 -65 0
1.0 22 169 0
1.0 167 87 0
1.0 173 15 0
1.0 -97 -120 0
1.0 68 -196 0
1.0 22 111 0
1.0 28 137 0
1.0 -112 158 0
1.0 55 -157 0
1.0 -195 110 0
1.0 -9 -124 0
1.0 -43 -96 0
1.0 91 -167 0
1.0 -77 -68 0
1.0 -5 -184 0
1.0 -141 -113 0
1.0 -69 41 0
1.0 150 -51 0
1.0 174 178 0
1.0 -73 -168 0
1.0 134 162 0
1.0 -30 52 0
1.0 -35 -113 0
1.0 -25 145 0
1.0 -185 -108 0
1.0 158 -28 0
1.0 -6 158 0
1.0 126 77 0
1.0 38 118 0
1.0 -169 185 0
1.0 -97 -52 0
1.0 196 -151 0
1.0 -58 171 0
1.0 -198 10 0
1.0 168 96 0
1.0 -172 123 0
1.0 41 22 0
1.0 6 -180 0
1.0 31 193 0
1.0 143 38 0
1.0 8 124 0
1.0 133 164 0
1.0 -60 90 0
1.0 13 144 0
1.0 165 -119 0
1.0 98 -76 0
1.0 -69 96 0
1.0 133 -164 0
1.0 -87 28 0
1.0 -192 153 0
1.0 43 111 0
1.0 -55 123 0
1.0 -42 -170 0
1.0 46 -63 0
1.0 -159 23 0
1.0 186 136 0
1.0 164 -177 0
1.0 130 -10 0
1.0 120 -89 0
1.0 -12 133 0
1.0 -102 -182 0
1.0 45 59 0
1.0 81 185 0
1.0 -120 125 0
1.0 101 30 0
1.0 39 -46 0
1.0 -134 -27 0
1.0 -159 125 0
1.0 107 -188 0
1.0 -46 -67 0
1.0 -51 -47 0
1.0 172 133 0
1.0 -163 94 0
1.0 -139 104 0
1.0 130 92 0
1.0 -16 -14 0
1.0 2 154 0
1.0 -21 25 0
1.0 72 167 0
1.0 -100 96 0
1.0 189 -18 0
1.0 122 22 0
1.0 -113 -18 0
1.0 32 86 0
1.0 40 122 0
1.0 -147 54 0
1.0 21 -173 0
1.0 -68 177 0
1.0 -195 -44 0
1.0 -65 -185 0
1.0 -2 105 0
1.0 191 156 0
1.0 78 146 0
1.0 199 22 0
1.0 -194 103 0
1.0 -80 119 0
1.0 -162 103 0
1.0 88 157 0
1.0 -62 111 0
1.0 67 -187 0
1.0 -132 -174 0
1.0 -195 -9 0
1.0 111 -88 0
1.0 7 -169 0
1.0 -72 -54 0
1.0 11 200 0
1.0 -111 -169 0
1.0 -155 7 0
1.0 180 -88 0
1.0 -96 166 0
1.0 -53 14 0
1.0 182 60 0
1.0 114 -23 0
1.0 -23 -58 0
1.0 -26 -120 0
1.0 126 -31 0
1.0 118 84 0
1.0 49 -44 0
1.0 -57 17 0
1.0 77 -189 0
1.0 -12 102 0
1.0 -160 -109 0
1.0 -29 -78 0
1.0 108 33 0
1.0 116 -140 0
1.0 183 59 0
1.0 75 -28 0
1.0 -17 168 0
1.0 69 55 0
1.0 164 -30 0
1.0 -107 180 0
1.0 13 -5 0
1.0 144 -79 0
1.0 -138 160 0
1.0 -187 42 0
1.0 9 105 0
1.0 -159 -95 0
1.0 -125 121 0
1.0 100 -59 0
1.0 63 86 0
1.0 -165 -133 0
1.0 -93 98 0
1.0 139 -79 0
1.0 183 -115 0
1.0 9 -132 0
1.0 -52 -178 0
1.0 37 10 0
1.0 -95 105 0
1.0 -38 -162 0
1.0 76 -9 0
1.0 -92 22 0
1.0 47 -80 0
1.0 144 -148 0
1.0 -111 -182 0
1.0 46 -56 0
1.0 -161 -75 0
1.0 -36 -117 0
1.0 126 7 0
1.0 28 4 0
1.0 83 37 0
1.0 -184 83 0
1.0 65 -104 0
1.0 159 -31 0
1.0 -105 -48 0
1.0 164 50 0
1.0 -57 118 0
1.0 -121 128 0
1.0 164 -10 0
1.0 92 -175 0
1.0 78 58 0
1.0 -88 -127 0
1.0 -174 -74 0
1.0 124 -185 0
1.0 102 131 0
1.0 58 21 0
1.0 -30 -54 0
1.0 29 -12 0
1.0 -70 -144 0
1.0 -70 99 0
1.0 -173 82 0
1.0 66 -6 0
1.0 -136 -138 0
1.0 158 -16 0
1.0 -70 185 0
1.0 197 187 0
1.0 131 -148 0
1.0 47 172 0
1.0 -54 -22 0
1.0 27 -189 0
1.0 -126 78 0
1.0 94 -173 0
1.0 157 -181 0
1.0 168 66 0
1.0 13 42 0
1.0 14 139 0
1.0 -161 -191 0
1.0 -179 -73 0
1.0 -151 107 0
1.0 79 60 0
1.0 -40 68 0
1.0 -134 -9 0
1.0 51 2 0
1.0 -141 -83 0
1.0 73 116 0
1.0 -189 -39 0
1.0 -145 144 0
1.0 3 190 0
1.0 57 -48 0
1.0 -56 -155 0
1.0 -157 142 0
1.0 -25 100 0
1.0 -15 87 0
1.0 -125 105 0
1.0 49 125 0
1.0 115 -150 0
1.0 -198 145 0
1.0 -100 99 0
1.0 -41 128 0
1.0 -27 152 0
1.0 38 -111 0
1.0 16 188 0
1.0 -113 123 0
1.0 -73 9 0
1.0 -154 160 0
1.0 -58 81 0
1.0 -9 62 0
1.0 13 124 0
1.0 35 123 0
1.0 -111 43 0
1.0 166 28 0
1.0 -36 -48 0
1.0 8 30 0
1.0 -111 -150 0
1.0 -12 125 0
1.0 49 31 0
1.0 -153 87 0
1.0 130 45 0
1.0 -73 -136 0
1.0 184 -39 0
1.0 68 -139 0
